56380
51, 37, 5, 35, 24, 20, 50, 8, 38, 44, 32, 41, 13, 3, 6, 28, 55, 26, 23, 21, 29, 22, 10, 16, 39, 36, 46, 15, 52, 42, 33, 1, 27, 25, 31, 11, 45, 2, 14, 9, 12, 18, 4, 30, 47, 54, 34, 53, 17, 48, 19, 49, 43, 40, 7
